c clasp version 2.1.1
c Reading from p11.cnf
c Solving...
s SATISFIABLE

c Models        : 1+    
c Time          : 1.071s (Solving: 0.29s 1st Model: 0.29s Unsat: 0.00s)
c CPU Time      : 1.060s
c Choices       : 17847
c Conflicts     : 1296
c Restarts      : 4      (Average: 324.00 Last: 75)

c Variables     : 212930 (Eliminated: 66978 Frozen:    0)
c Constraints   : 238192 (Binary: 65.3% Ternary: 33.1% Other:  1.6%)
c Lemmas        : 1296   (Binary:  0.2% Ternary:  1.0% Other: 98.8%)
c   Conflict    : 1296   (Average Length: 84.7) 
c   Loop        : 0      (Average Length: 0.0) 
c   Other       : 0      (Average Length: 0.0)
c   Deleted     : 0     
